n=10;
a=[7,9,4,7,7,5,2,2,6,5];
b=[0,0,3,0,4,0,2,1,2,1,0,0,0,0,2,0,0,0,0,2,3,0,0,0,0,4,0,2,2,4,0,0,0,0,4,3,2,1,4,3,4,2,0,4,0,2,2,0,0,3,0,0,4,3,2,0,2,1,4,0,2,0,0,2,2,2,0,2,0,0,1,0,2,1,0,1,2,0,0,0,2,0,2,4,0,4,0,0,0,4,1,2,4,3,3,0,0,0,4,0];
